
******************************************************************************
This program contains Ipopt, a library for large-scale nonlinear optimization.
 Ipopt is released as open source code under the Eclipse Public License (EPL).
         For more information visit http://projects.coin-or.org/Ipopt
******************************************************************************

This is Ipopt version 3.12.6, running with linear solver ma57.

Number of nonzeros in equality constraint Jacobian...:        0
Number of nonzeros in inequality constraint Jacobian.:        0
Number of nonzeros in Lagrangian Hessian.............:       15

Total number of variables............................:        5
                     variables with only lower bounds:        0
                variables with lower and upper bounds:        5
                     variables with only upper bounds:        0
Total number of equality constraints.................:        0
Total number of inequality constraints...............:        0
        inequality constraints with only lower bounds:        0
   inequality constraints with lower and upper bounds:        0
        inequality constraints with only upper bounds:        0

iter    objective    inf_pr   inf_du lg(mu)  ||d||  lg(rg) alpha_du alpha_pr  ls
   0  1.8693200e+00 0.00e+00 1.32e-01  -1.0 0.00e+00    -  0.00e+00 0.00e+00   0
   1  1.8789395e+00 0.00e+00 3.47e-04  -1.0 9.67e-02    -  9.95e-01 1.00e+00f  1
   2  1.1412681e+00 0.00e+00 4.54e-01  -2.5 2.14e+01  -2.0 8.98e-02 1.16e-01f  1
   3  1.0082393e+00 0.00e+00 1.13e-01  -2.5 8.25e-01    -  1.00e+00 5.26e-01f  1
   4  1.0137653e+00 0.00e+00 9.01e-06  -2.5 1.24e-02    -  1.00e+00 1.00e+00f  1
   5  1.0006496e+00 0.00e+00 4.12e-05  -3.8 1.30e-02    -  1.00e+00 1.00e+00f  1
   6  1.0000089e+00 0.00e+00 9.86e-08  -5.7 6.42e-04    -  1.00e+00 1.00e+00f  1
   7  9.9999996e-01 0.00e+00 1.92e-11  -8.6 8.95e-06    -  1.00e+00 1.00e+00f  1

Number of Iterations....: 7

                                   (scaled)                 (unscaled)
Objective...............:   9.9999996288090887e-01    9.9999996288090887e-01
Dual infeasibility......:   1.9214185797977734e-11    1.9214185797977734e-11
Constraint violation....:   0.0000000000000000e+00    0.0000000000000000e+00
Complementarity.........:   2.5026393927769093e-09    2.5026393927769093e-09
Overall NLP error.......:   2.5026393927769093e-09    2.5026393927769093e-09


Number of objective function evaluations             = 8
Number of objective gradient evaluations             = 8
Number of equality constraint evaluations            = 0
Number of inequality constraint evaluations          = 0
Number of equality constraint Jacobian evaluations   = 0
Number of inequality constraint Jacobian evaluations = 0
Number of Lagrangian Hessian evaluations             = 7
Total CPU secs in IPOPT (w/o function evaluations)   =      0.003
Total CPU secs in NLP function evaluations           =      0.000

EXIT: Optimal Solution Found.

 ** SUBROUTINE CUTEST_csetup: Warning. The problem has no general constraints. 
 ** Other tools may be preferable ** 

************************ CUTEst statistics ************************


 Package used            :  IPOPT
 Problem                 :  HS45      
 # variables             =               5
 # constraints           =               0
 # objective functions   =        0.1700000E+02
 # objective gradients   =        0.9000000E+01
 # objective Hessians    =        0.8000000E+01
 # Hessian-vector prdct  =        0.0000000E+00
 # constraints functions =        0.0000000E+00
 # constraints gradients =        0.0000000E+00
 # constraints Hessians  =        0.0000000E+00
 Exit code               =               0
 Final f                 =   0.1000000E+01
 Set up time             =            0.00 seconds
 Solve time              =            0.01 seconds


******************************************************************

System Time =       0.0030000000 s.
